41-16-19-106-112-68-64-67-90-57-99-32-51-78-42-107-24-18-17-84-116-30-65-21-80-93-85-77-44-27-91-31-119-28-29-14-58-75-0-60-15-104-59-23-110-95-89-53-7-69-115-33-3-25-70-46-54-5-83-34-9-98-103-35-88-47-101-100-109-111-105-61-36-66-82-56-72-113-79-26-4-62-38-76-94-11-96-87-108-20-92-63-52-1-81-2-118-102-8-22-10-114-50-12-48-117-97-49-45-43-74-13-86-73-71-39-37-6-55-40 7215